*SPEF "ieee 1481-1999"
*DESIGN "AND"
*DATE "23:52:36 Friday August 28, 2026"
*VENDOR "The OpenROAD Project"
*PROGRAM "OpenROAD"
*VERSION "edf00dff99f6c40d67a30c0e22a8191c5d2ed9d6"
*DESIGN_FLOW "NAME_SCOPE LOCAL" "PIN_CAP NONE"
*DIVIDER /
*DELIMITER :
*BUS_DELIMITER []
*T_UNIT 1 NS
*C_UNIT 1 PF
*R_UNIT 1 OHM
*L_UNIT 1 HENRY

*NAME_MAP
*1 A
*2 B
*3 OUTPUT
*6 net1
*7 net2
*8 net3
*9 FILLER_0_15
*10 FILLER_0_27
*11 FILLER_0_29
*12 FILLER_0_3
*13 FILLER_0_41
*14 FILLER_0_53
*15 FILLER_0_57
*16 FILLER_0_69
*17 FILLER_1_15
*18 FILLER_1_27
*19 FILLER_1_3
*20 FILLER_1_39
*21 FILLER_1_51
*22 FILLER_1_55
*23 FILLER_1_57
*24 FILLER_1_69
*25 FILLER_2_15
*26 FILLER_2_27
*27 FILLER_2_29
*28 FILLER_2_3
*29 FILLER_2_41
*30 FILLER_2_53
*31 FILLER_2_65
*32 FILLER_2_77
*33 FILLER_3_15
*34 FILLER_3_27
*35 FILLER_3_3
*36 FILLER_3_39
*37 FILLER_3_51
*38 FILLER_3_55
*39 FILLER_3_57
*40 FILLER_3_69
*41 FILLER_4_12
*42 FILLER_4_24
*43 FILLER_4_29
*44 FILLER_4_3
*45 FILLER_4_41
*46 FILLER_4_53
*47 FILLER_4_65
*48 FILLER_4_77
*49 FILLER_5_19
*50 FILLER_5_31
*51 FILLER_5_43
*52 FILLER_5_55
*53 FILLER_5_57
*54 FILLER_5_69
*55 FILLER_5_7
*56 FILLER_6_18
*57 FILLER_6_26
*58 FILLER_6_29
*59 FILLER_6_41
*60 FILLER_6_53
*61 FILLER_6_6
*62 FILLER_6_65
*63 FILLER_6_77
*64 FILLER_7_15
*65 FILLER_7_27
*66 FILLER_7_3
*67 FILLER_7_39
*68 FILLER_7_51
*69 FILLER_7_55
*70 FILLER_7_57
*71 FILLER_7_69
*72 FILLER_8_15
*73 FILLER_8_27
*74 FILLER_8_29
*75 FILLER_8_3
*76 FILLER_8_41
*77 FILLER_8_53
*78 FILLER_8_65
*79 FILLER_8_77
*80 FILLER_9_15
*81 FILLER_9_27
*82 FILLER_9_29
*83 FILLER_9_3
*84 FILLER_9_41
*85 FILLER_9_53
*86 FILLER_9_57
*87 FILLER_9_69
*88 PHY_EDGE_ROW_0_Left_10
*89 PHY_EDGE_ROW_0_Right_0
*90 PHY_EDGE_ROW_1_Left_11
*91 PHY_EDGE_ROW_1_Right_1
*92 PHY_EDGE_ROW_2_Left_12
*93 PHY_EDGE_ROW_2_Right_2
*94 PHY_EDGE_ROW_3_Left_13
*95 PHY_EDGE_ROW_3_Right_3
*96 PHY_EDGE_ROW_4_Left_14
*97 PHY_EDGE_ROW_4_Right_4
*98 PHY_EDGE_ROW_5_Left_15
*99 PHY_EDGE_ROW_5_Right_5
*100 PHY_EDGE_ROW_6_Left_16
*101 PHY_EDGE_ROW_6_Right_6
*102 PHY_EDGE_ROW_7_Left_17
*103 PHY_EDGE_ROW_7_Right_7
*104 PHY_EDGE_ROW_8_Left_18
*105 PHY_EDGE_ROW_8_Right_8
*106 PHY_EDGE_ROW_9_Left_19
*107 PHY_EDGE_ROW_9_Right_9
*108 TAP_TAPCELL_ROW_0_20
*109 TAP_TAPCELL_ROW_0_21
*110 TAP_TAPCELL_ROW_1_22
*111 TAP_TAPCELL_ROW_2_23
*112 TAP_TAPCELL_ROW_3_24
*113 TAP_TAPCELL_ROW_4_25
*114 TAP_TAPCELL_ROW_5_26
*115 TAP_TAPCELL_ROW_6_27
*116 TAP_TAPCELL_ROW_7_28
*117 TAP_TAPCELL_ROW_8_29
*118 TAP_TAPCELL_ROW_9_30
*119 TAP_TAPCELL_ROW_9_31
*120 _0_
*121 input1
*122 input2
*123 output3

*PORTS
A I
B I
OUTPUT O

*D_NET *1 0.00133882
*CONN
*P A I
*I *121:A I *D sky130_fd_sc_hd__clkbuf_1
*CAP
1 A 0.000584007
2 *121:A 0
3 *1:15 0.000584007
4 *1:15 OUTPUT 2.12457e-05
5 *1:15 *120:B 0.000149562
6 *1:15 *122:A 0
7 *1:15 *3:14 0
8 *1:15 *7:8 0
*RES
1 A *1:15 32.1692 
2 *1:15 *121:A 23 
*END

*D_NET *2 0.000563238
*CONN
*P B I
*I *122:A I *D sky130_fd_sc_hd__clkbuf_1
*CAP
1 B 0.00026273
2 *122:A 0.00026273
3 *122:A OUTPUT 1.5289e-05
4 *122:A *3:14 1.26232e-05
5 *122:A *7:8 9.86551e-06
6 *1:15 *122:A 0
*RES
1 B *122:A 47.7832 
*END

*D_NET *3 0.000762474
*CONN
*P OUTPUT O
*I *123:X O *D sky130_fd_sc_hd__buf_2
*CAP
1 OUTPUT 7.67726e-05
2 *123:X 0.000279886
3 *3:14 0.000356658
4 *122:A OUTPUT 1.5289e-05
5 *122:A *3:14 1.26232e-05
6 *1:15 OUTPUT 2.12457e-05
7 *1:15 *3:14 0
*RES
1 *123:X *3:14 49.9 
2 *3:14 OUTPUT 0.382667 
*END

*D_NET *6 0.000332303
*CONN
*I *120:B I *D sky130_fd_sc_hd__and2_1
*I *121:X O *D sky130_fd_sc_hd__clkbuf_1
*CAP
1 *120:B 9.1371e-05
2 *121:X 9.1371e-05
3 *1:15 *120:B 0.000149562
*RES
1 *121:X *120:B 48.4236 
*END

*D_NET *7 0.000570889
*CONN
*I *120:A I *D sky130_fd_sc_hd__and2_1
*I *122:X O *D sky130_fd_sc_hd__clkbuf_1
*CAP
1 *120:A 0
2 *122:X 0.000251204
3 *7:8 0.000251204
4 *7:8 *8:8 5.86165e-05
5 *122:A *7:8 9.86551e-06
6 *1:15 *7:8 0
*RES
1 *122:X *7:8 43.075 
2 *7:8 *120:A 38 
*END

*D_NET *8 0.000389139
*CONN
*I *123:A I *D sky130_fd_sc_hd__buf_2
*I *120:X O *D sky130_fd_sc_hd__and2_1
*CAP
1 *123:A 6.80978e-05
2 *120:X 9.71635e-05
3 *8:8 0.000165261
4 *7:8 *8:8 5.86165e-05
*RES
1 *120:X *8:8 40.2579 
2 *8:8 *123:A 39.0979 
*END
